c A SAT instance generated from a 3-CNF formula that had 39 clauses and 13 variables
p cnf 13 39
2 -5 4 0
9 -4 12 0
-1 4 -2 0
11 -2 1 0
-2 13 5 0
-12 -3 6 0
13 -12 3 0
3 -5 -12 0
7 6 -3 0
11 -10 -9 0
-8 2 9 0
-4 5 -3 0
-1 -3 -2 0
-12 3 6 0
2 -10 7 0
10 9 8 0
7 -9 -1 0
9 10 12 0
12 -7 -2 0
3 5 -1 0
5 -1 4 0
10 6 11 0
8 -13 2 0
9 2 6 0
12 -2 -7 0
8 -7 10 0
11 3 2 0
-2 7 10 0
-5 -1 6 0
-6 4 7 0
-2 -13 -6 0
-4 -9 7 0
9 -1 -5 0
8 -3 -4 0
-6 -11 -9 0
-10 -13 -9 0
-5 8 6 0
-9 -8 -7 0
11 -13 5 0
